Route #1: 115 118 36 61 157 17 80 110 149 3 161 113
Route #2: 114 142 79 156 23 105 109 25 160 133 6 10
Route #3: 52 96 174 178 100 78 75 81 106 134 83 51
Route #4: 141 56 62 46 57 76 146 169 147 21 138 44 92 50
Route #5: 101 18 116 31 103 163 144 1 32 90 7 131 185 15
Route #6: 99 84 27 89 98 151 122 139 102 97 82 128
Route #7: 74 45 91 39 29 150 136 95 145 87 37 40
Route #8: 132 165 148 63 70 179 48 55 137 125 167 130 127
Route #9: 184 35 180 11 94 54 112 20 66 135 71 12 129
Route #10: 72 164 121 22 59 47 120 123 34 65 117 64 177 104
Route #11: 108 43 181 170 175 162 168 5 154 53 41 86
Route #12: 152 42 111 38 88 143 153 166 33 119 8 140 49
Route #13: 171 24 4 126 173 85 14 73 158 67 124 26
Route #14: 2 30 93 182 183 9 77 16 19 159 69 107 60
Route #15: 13 176 58 155 68 172 28
Cost 25629.819596587233